20 10
64 16 35 41 40 16 42 4 18 39
73 21 22 30 46 21 44 8 14 19
52 23 34 22 41 25 65 9 35 32
75 16 40 41 45 17 43 12 32 39
77 26 23 14 59 16 54 10 28 18
45 19 35 28 58 16 65 10 30 21
64 19 30 35 35 20 58 10 31 35
77 19 27 33 55 22 51 7 49 25
63 20 20 20 44 14 64 7 12 16
67 19 23 28 58 6 71 11 39 12
61 26 31 11 57 19 38 10 27 21
64 13 19 18 28 14 76 7 22 39
53 25 13 22 61 26 59 12 26 33
39 21 20 15 51 9 67 11 29 40
42 21 32 23 43 6 68 15 37 44
70 17 46 20 54 9 57 13 17 23
54 20 28 35 64 13 69 7 30 25
38 31 25 19 55 24 58 10 35 41
66 18 31 51 39 32 67 8 40 21
76 21 24 12 64 17 73 14 20 16
